projet_m2_wvcp/reduced_wvcp_dzn/GEOM50a.clq.dzn
cliques=[{0,4,5,6,10,16,20,23,24},{0,1,4,10,11,14,18,26},{0,1,2,14,18,26},{3,8,9,15},{0,4,5,6,10,16,20,23,24},{0,4,5,6,10,16,20,23,24},{0,4,5,6,10,16,20,23,24},{7,12,13,17,19,21,22,25,27},{3,8,9,15},{3,8,9,15},{0,4,5,6,10,16,20,23,24},{0,1,4,10,11,14,18,26},{7,12,13,17,19,21,22,25,27},{7,12,13,17,19,21,22,25,27},{0,1,4,10,11,14,18,26},{12,13,15,17,19,25,27},{0,4,5,6,10,16,20,23,24},{7,12,13,17,19,21,22,25,27},{0,1,4,10,11,14,18,26},{7,12,13,17,19,21,22,25,27},{0,4,5,6,10,16,20,23,24},{7,12,13,17,19,21,22,25,27},{7,12,13,17,19,22,21,25,27},{0,4,5,6,10,16,20,23,24},{0,4,5,6,10,16,20,23,24},{7,12,13,17,19,21,22,25,27},{0,1,4,10,11,14,18,26},{7,12,13,17,19,21,22,25,27}];
nr_cliques=28;
