projet_m2_wvcp/reduced_wvcp_dzn/GEOM50a.dzn
name="GEOM50a";
nr_vertices=28;
nr_edges=129;
neighborhoods=[{1,2,4,5,6,10,11,14,16,18,20,23,24,26},{0,2,4,10,11,14,18,23,26},{0,1,14,18,26},{8,9,15},{0,1,5,6,10,11,14,16,18,20,23,24,26},{0,4,6,10,11,14,16,18,20,23,24,26},{0,4,5,10,16,20,23,24},{12,13,17,19,21,22,25,27},{3,9,15,17,19,25},{3,8,15,17},{0,1,4,5,6,11,14,16,18,20,23,24,26},{0,1,4,5,10,14,18,24,26},{7,13,15,17,19,21,22,25,27},{7,12,15,17,19,21,22,25,27},{0,1,2,4,5,10,11,18,23,24,26},{3,8,9,12,13,17,19,25,27},{0,4,5,6,10,20,23,24},{7,8,9,12,13,15,19,21,22,25,27},{0,1,2,4,5,10,11,14,23,26},{7,8,12,13,15,17,21,22,25,27},{0,4,5,6,10,16,23,24},{7,12,13,17,19,22,25,27},{7,12,13,17,19,21,25,27},{0,1,4,5,6,10,14,16,18,20,24,26},{0,4,5,6,10,11,14,16,20,23,26},{7,8,12,13,15,17,19,21,22,27},{0,1,2,4,5,10,11,14,18,23,24},{7,12,13,15,17,19,21,22,25}];
weights=[10,10,10,10,9,9,9,9,9,9,8,8,8,7,6,6,6,5,5,5,4,4,4,3,3,3,2,1];
